c PyNETGEN v1.0.0
c $ pip install pynetgen
c
c  NETGEN flow network generation algorithm
c  Problem input parameters
c  -------------------------------------
c   Random seed:          15
c   Number of nodes:      17
c   Source nodes:         6
c   Sink nodes:           4
c   Number of arcs:       167
c   Minimum arc cost:     10
c   Maximum arc cost:     99
c   Total supply:         1000
c   Transshipment -
c     Sources:            0
c     Sinks:              0
c   Skeleton arcs -
c     With max cost:      0
c     Capacitated:        100
c   Minimum arc capacity: 100
c   Maximum arc capacity: 1000
c
c  *** Minimum cost flow ***
c
p min 17 130
n 1 227
n 2 153
n 3 323
n 4 203
n 5 74
n 6 20
n 14 -420
n 15 -238
n 16 -129
n 17 -213
a 1 13 0 227 25
a 1 8 0 379 68
a 1 11 0 746 62
a 1 14 0 177 48
a 1 12 0 164 73
a 1 15 0 180 12
a 1 9 0 335 99
a 1 16 0 241 81
a 1 7 0 880 36
a 1 10 0 433 78
a 13 14 0 227 38
a 13 15 0 227 33
a 13 10 0 340 22
a 13 7 0 945 69
a 13 12 0 983 81
a 13 17 0 751 61
a 13 11 0 182 66
a 13 16 0 605 14
a 13 9 0 117 21
a 13 8 0 458 24
a 2 10 0 153 60
a 2 8 0 833 86
a 2 9 0 964 77
a 2 7 0 108 88
a 2 15 0 178 81
a 2 14 0 211 71
a 2 13 0 662 67
a 2 11 0 782 51
a 2 12 0 210 39
a 2 16 0 423 28
a 7 9 0 153 68
a 7 12 0 455 46
a 7 11 0 279 60
a 7 15 0 796 51
a 7 17 0 409 98
a 7 14 0 279 13
a 7 8 0 742 62
a 7 13 0 779 89
a 7 10 0 732 29
a 7 16 0 629 99
a 9 16 0 153 10
a 9 14 0 153 60
a 9 17 0 893 76
a 9 10 0 402 43
a 9 8 0 429 57
a 9 11 0 288 66
a 9 13 0 968 62
a 9 12 0 890 10
a 9 7 0 892 87
a 9 15 0 815 34
a 10 7 0 153 77
a 10 13 0 955 30
a 10 17 0 745 88
a 10 9 0 106 86
a 10 11 0 811 86
a 10 8 0 312 61
a 10 14 0 930 64
a 10 16 0 501 45
a 10 15 0 858 60
a 10 12 0 498 19
a 3 8 0 323 27
a 3 12 0 753 59
a 3 7 0 868 50
a 3 13 0 169 95
a 3 11 0 920 34
a 3 9 0 926 90
a 3 16 0 287 92
a 3 15 0 170 67
a 3 14 0 660 86
a 3 10 0 874 36
a 8 14 0 323 34
a 8 17 0 323 13
a 8 7 0 724 15
a 8 11 0 314 53
a 8 10 0 935 23
a 8 12 0 200 78
a 8 15 0 598 83
a 8 9 0 713 81
a 8 16 0 520 49
a 8 13 0 257 75
a 4 12 0 203 66
a 4 10 0 243 61
a 4 15 0 575 87
a 4 16 0 591 40
a 4 11 0 231 96
a 4 14 0 937 59
a 4 7 0 438 71
a 4 9 0 705 63
a 4 8 0 720 91
a 4 13 0 707 88
a 11 15 0 203 93
a 11 7 0 573 40
a 11 8 0 454 48
a 11 14 0 957 48
a 11 16 0 276 36
a 11 13 0 765 65
a 11 17 0 258 90
a 11 12 0 202 79
a 11 9 0 571 82
a 11 10 0 397 97
a 12 11 0 203 97
a 12 14 0 203 44
a 12 15 0 241 43
a 12 16 0 745 88
a 12 8 0 601 73
a 12 13 0 258 95
a 12 10 0 663 33
a 12 17 0 150 36
a 12 9 0 712 43
a 12 7 0 902 54
a 5 16 0 100 75
a 5 14 0 100 60
a 5 9 0 936 43
a 5 13 0 248 70
a 5 11 0 920 71
a 5 10 0 571 32
a 5 12 0 169 50
a 5 15 0 663 46
a 5 7 0 272 52
a 5 8 0 920 68
a 6 16 0 100 70
a 6 17 0 100 68
a 6 12 0 421 19
a 6 13 0 849 32
a 6 8 0 713 27
a 6 9 0 929 96
a 6 11 0 689 44
a 6 10 0 537 91
a 6 14 0 742 93
a 6 7 0 593 74
